0 0 1 4 7 9 10 17 18 19 20 22 24 28 32 33 35 36 38 40 43 47 49 59 66 67 69 70 73 74 75 78 80 84 85 86 89 93 94 97 100 101 108 110 111 112 117 118 119 123 
1 83 
2 61 
3 76 
4 109 
5 50 
6 68 
7 90 
8 121 
9 29 34 
10 8 12 52 60 
11 16 88 107 
12 41 
13 51 72 99 
14 54 57 
15 65 
16 30 63 92 
17 96 
18 114 
19 2 21 23 53 77 
20 31 103 124 
21 48 
22 5 14 42 55 62 87 115 120 
23 64 81 91 
24 3 56 102 
25 71 98 104 113 
26 6 11 25 44 58 105 106 
27 13 27 95 
28 15 45 79 82 
29 26 37 39 46 116 122 
